StudentsNr = 10;
InstructorsNr = 47;
DaysNr = 1;
SlotsPerDay = 20;
AvailabilitySlotsLenght = 5;
RoomNr = 1;
ProgrammNr = 2;
DegreeNr = 2;
RolesNr = 1;
CoursesNr = 3;
InstructorsProgramm = [{1}, {2}, {2}, {1}, {2}, {1}, {2}, {1}, {1}, {2}, {2}, {2}, {1, 2}, {1}, {2}, {1}, {1}, {1, 2}, {1, 2}, {2}, {1, 2}, {1, 2}, {1, 2}, {2}, {1}, {1}, {2}, {1}, {1}, {2}, {2}, {2}, {1}, {1, 2}, {2}, {1, 2}, {2}, {1}, {2}, {1}, {1, 2}, {2}, {1}, {1}, {2}, {1}, {1}];
InstructorRolesPerProgramm = [|{6, 8, 13, 14, 26, 29, 34, 36, 40, 46}|{3, 11, 12, 13, 15, 20, 24, 27, 32, 34, 35, 36, 37, 39}|];
InstructorsAvailability = [|1, 0, 0, 0, |1, 0, 1, 1, |1, 1, 1, 1, |0, 1, 1, 0, |0, 1, 1, 1, |1, 1, 0, 1, |1, 1, 1, 1, |1, 1, 1, 1, |0, 1, 1, 1, |1, 1, 1, 1, |0, 1, 0, 1, |1, 1, 1, 1, |0, 1, 1, 1, |0, 1, 0, 1, |0, 0, 0, 1, |1, 1, 1, 1, |0, 0, 1, 1, |1, 0, 1, 1, |1, 1, 1, 1, |0, 1, 1, 0, |0, 1, 1, 0, |0, 1, 1, 1, |1, 1, 1, 1, |0, 1, 1, 1, |1, 1, 1, 1, |0, 1, 1, 0, |0, 1, 0, 1, |0, 1, 1, 1, |1, 1, 1, 1, |1, 1, 1, 1, |1, 1, 1, 1, |0, 1, 0, 1, |1, 1, 1, 1, |1, 1, 1, 1, |1, 1, 0, 0, |1, 1, 0, 1, |0, 1, 1, 1, |1, 1, 1, 1, |1, 1, 0, 1, |0, 0, 1, 1, |1, 1, 1, 1, |1, 1, 1, 1, |1, 1, 1, 1, |1, 0, 0, 0, |1, 1, 1, 1, |1, 1, 1, 1, |0, 0, 0, 0|];
StudentsProgramm = [2, 1, 2, 2, 1, 1, 1, 1, 2, 1];
StudentsDegree = [1, 1, 1, 2, 1, 2, 1, 1, 1, 2];
StudentsSupervisorId = [37, 22, 18, 45, 25, 9, 23, 47, 19, 33];
StudentsCourseIds = [{}, {}, {}, {}, {}, {}, {}, {}, {}, {}];
StudentsAvailability = [|1, 1, 1, 1, |0, 0, 1, 1, |1, 1, 1, 1, |0, 1, 1, 1, |0, 1, 1, 1, |0, 0, 0, 0, |1, 1, 1, 1, |1, 0, 0, 0, |0, 1, 1, 1, |1, 1, 1, 1|];
TheoryticalMinCard = [0, 1, 1, 1, 1, 1, 1, 1, 1, 1];
CoursesInstructorIds = [{2, 3, 12, 18, 22, 27, 31, 33, 35, 40, 43}, {1, 6, 10, 12, 14, 18, 21, 23, 26, 27, 28, 30, 33, 36, 37, 41, 45, 47}, {3, 7, 8, 9, 13, 16, 23, 28, 35, 38, 40, 41, 42, 47}];
RolesDemands = [2];
RolesContinuity = [];
ExamLen = [1, 1, 1, 2, 1, 2, 1, 1, 1, 2];
LunchTsMinLen = 1;
LunchStarts = [6..12];
SupervisorAvailable = 5;
OptimalLunchLenght = [2, 1];
OptimalStartTs = [2, 0];
OptimalFinishTs = [0, 20];
MinimizeRooms = 0;
RolesSoftContinuity = [|1|3|];
SameDegreeInRoom = 0;
Mergeability = 0;
